c instance by G2
c solution = 100101001
c Known solution cost is 477 
p cnf 9 30
w 59 31 84 29 97 38 91 25 23
8 3 1 0
-5 7 -4 0
-6 -2 1 0
-6 4 8 0
-9 -7 -2 0
-7 3 -6 0
8 2 -3 0
6 -9 -4 0
4 -8 -6 0
7 -3 -4 0
3 -8 -4 0
7 -3 -1 0
-7 -2 -8 0
-3 -2 -9 0
1 8 2 0
-9 -2 -6 0
-5 -1 7 0
-7 1 3 0
5 6 4 0
1 7 -4 0
-1 -7 -9 0
-9 5 -2 0
8 9 2 0
9 8 2 0
6 -5 3 0
-8 -9 -1 0
-3 -1 -5 0
7 -4 9 0
2 4 6 0
6 5 -9 0
